102456
13,37,18,21,71,54,46,45,73,64,1,10,29,14,70,62,80,66,36,26,76,67,20,9,77,17,58,74,32,5,48,24,31,19,22,44,68,59,53,83,8,28,79,6,61,30,35,75,82,40,11,16,33,27,7,56,51,72,38,2,43,81,60,47,49,34,57,3,12,23,55,42,25,15,69,78,41,52,39,63,4,50,65